MARKOV
12
3 4 3 4 3 3 3 2 3 2 2 2
16
2 10 0
2 7 1
2 11 2
2 1 3
3 9 4 5
1 6
1 7
1 8
1 9
1 10
2 10 11
1 7
1 4
1 1
1 1
2 9 4

6 0.01 0.19 0.8 0.05 0.9 1.05

8 0.97 0.01 0.01 0.01 0.97 0.01 0.01 0.01

6 0.98 0.01 0.01 0.01 0.98 0.01

16 0.97 0.01 0.01 0.01 0.01 0.97 0.01 0.01 0.01 0.97 0.01 0.01 0.01 0.97 0.01 0.01

18 0.33333334 0.33333334 0.33333334 0.33333334 0.33333334 0.33333334 0.33333334 0.33333334 0.33333334 0.98 0.01 0.01 0.01 0.98 0.01 0.01 0.01 0.98

3 0.95 0.04 0.01

2 0.04 0.96

3 0.98 0.01 0.01

2 0.1 0.9

2 1.01 0.99

4 0.1 0.9 0.1 0.9

2 1.97 0.97

3 1.98 0.95 0.3

4 0.97 0.01 0.01 0.01

4 0.97 1.01 0.01 0.01

6 0.33333334 0.33333334 0.33333334 0.98 0.01 0.01
